(set-info :smt-lib-version 2.6)
(set-logic QF_UF)
(set-info :category "crafted")
(set-info :status unsat)
(declare-sort S1 0)
(declare-fun a () S1)
(declare-fun x () S1)
(declare-fun y () S1)
(declare-fun f (S1 S1) S1)
(assert (let ((f1 (f x y)) (f2 (f y x)) (f3 (f a y)) (f4 (f y a))) (and (= f1 f2) (not (= f3 f4)) ) ))
(check-sat)
(exit)
